(set-logic QF_S)
(declare-fun var0 () String)
(assert (str.in.re var0 (re.++ (re.* (re.+ (str.to.re "0"))) (re.++ (re.union (re.* (str.to.re "111")) (re.* (str.to.re "2"))) (re.++ (re.union (re.* (str.to.re "33")) (re.* (str.to.re "444"))) (re.++ (re.union (re.* (str.to.re "5")) (re.* (str.to.re "66"))) (re.++ (re.union (re.+ (str.to.re "77")) (re.+ (str.to.re "8"))) (re.++ (re.+ (re.+ (str.to.re "99"))) (re.++ (re.+ (re.+ (str.to.re "aaa"))) (re.++ (re.* (re.* (str.to.re "b"))) (re.++ (re.* (re.+ (str.to.re "cc"))) (re.++ (re.* (re.union (str.to.re "dd") (str.to.re "ee"))) (re.++ (re.* (re.* (str.to.re "f"))) (re.++ (re.* (re.union (str.to.re "ggg") (str.to.re "h"))) (re.++ (re.+ (re.* (str.to.re "iii"))) (re.++ (re.union (re.+ (str.to.re "jjj")) (re.+ (str.to.re "kk"))) (re.++ (re.* (re.* (str.to.re "lll"))) (re.++ (re.union (re.+ (str.to.re "mmm")) (re.+ (str.to.re "nnn"))) (re.++ (re.union (re.union (str.to.re "ooo") (str.to.re "pp")) (re.union (str.to.re "qq") (str.to.re "rr"))) (re.++ (re.* (re.union (str.to.re "s") (str.to.re "tt"))) (re.++ (re.union (re.union (str.to.re "u") (str.to.re "vv")) (re.union (str.to.re "www") (str.to.re "xx"))) (re.++ (re.+ (re.* (str.to.re "y"))) (re.++ (re.union (re.union (str.to.re "z") (str.to.re "AAA")) (re.union (str.to.re "B") (str.to.re "CC"))) (re.++ (re.* (re.* (str.to.re "D"))) (re.++ (re.union (re.+ (str.to.re "EE")) (re.+ (str.to.re "F"))) (re.++ (re.union (re.union (str.to.re "G") (str.to.re "HHH")) (re.union (str.to.re "I") (str.to.re "JJ"))) (re.++ (re.* (re.+ (str.to.re "KKK"))) (re.++ (re.+ (re.* (str.to.re "LLL"))) (re.++ (re.* (re.* (str.to.re "MM"))) (re.++ (re.+ (re.+ (str.to.re "NN"))) (re.++ (re.+ (re.union (str.to.re "OO") (str.to.re "P"))) (re.++ (re.* (re.union (str.to.re "QQQ") (str.to.re "R"))) (re.++ (re.* (re.union (str.to.re "SS") (str.to.re "T"))) (re.++ (re.union (re.+ (str.to.re "UUU")) (re.+ (str.to.re "VV"))) (re.++ (re.+ (re.+ (str.to.re "WWW"))) (re.++ (re.* (re.+ (str.to.re "XX"))) (re.++ (re.+ (re.* (str.to.re "Y"))) (re.++ (re.* (re.* (str.to.re "ZZZ"))) (re.++ (re.* (re.+ (str.to.re "!!!"))) (re.++ (re.union (re.union (str.to.re """") (str.to.re "##")) (re.union (str.to.re "$$") (str.to.re "%%"))) (re.++ (re.+ (re.union (str.to.re "&") (str.to.re "'''"))) (re.++ (re.* (re.* (str.to.re "((("))) (re.++ (re.union (re.+ (str.to.re "))")) (re.+ (str.to.re "***"))) (re.++ (re.union (re.union (str.to.re "+++") (str.to.re ",,")) (re.union (str.to.re "-") (str.to.re "."))) (re.++ (re.* (re.union (str.to.re "///") (str.to.re ":"))) (re.++ (re.* (re.+ (str.to.re ";;;"))) (re.++ (re.union (re.+ (str.to.re "<<")) (re.+ (str.to.re "==="))) (re.++ (re.union (re.+ (str.to.re ">")) (re.+ (str.to.re "??"))) (re.++ (re.union (re.* (str.to.re "@@")) (re.* (str.to.re "[[["))) (re.++ (re.+ (re.* (str.to.re "\\"))) (re.++ (re.* (re.union (str.to.re "]]]") (str.to.re "^"))) (re.++ (re.* (re.* (str.to.re "___"))) (re.++ (re.union (re.union (str.to.re "``") (str.to.re "{{")) (re.union (str.to.re "|") (str.to.re "}}"))) (re.++ (re.union (re.+ (str.to.re "~~")) (re.+ (str.to.re "00"))) (re.++ (re.* (re.union (str.to.re "111") (str.to.re "222"))) (re.++ (re.* (re.* (str.to.re "33"))) (re.++ (re.union (re.* (str.to.re "444")) (re.* (str.to.re "5"))) (re.+ (re.* (str.to.re "666"))))))))))))))))))))))))))))))))))))))))))))))))))))))))))))
(assert (not (str.in.re var0 (re.++ (re.union (re.* (str.to.re "000")) (re.* (str.to.re "1"))) (re.++ (re.* (re.+ (str.to.re "22"))) (re.++ (re.+ (re.+ (str.to.re "33"))) (re.++ (re.+ (re.+ (str.to.re "4"))) (re.++ (re.+ (re.union (str.to.re "55") (str.to.re "66"))) (re.++ (re.* (re.+ (str.to.re "7"))) (re.++ (re.* (re.union (str.to.re "88") (str.to.re "9"))) (re.++ (re.union (re.* (str.to.re "aaa")) (re.* (str.to.re "b"))) (re.++ (re.union (re.* (str.to.re "cc")) (re.* (str.to.re "d"))) (re.++ (re.* (re.+ (str.to.re "e"))) (re.++ (re.* (re.* (str.to.re "fff"))) (re.++ (re.union (re.* (str.to.re "g")) (re.* (str.to.re "h"))) (re.++ (re.* (re.+ (str.to.re "ii"))) (re.++ (re.* (re.* (str.to.re "jj"))) (re.++ (re.union (re.+ (str.to.re "kk")) (re.+ (str.to.re "l"))) (re.++ (re.union (re.* (str.to.re "mmm")) (re.* (str.to.re "nn"))) (re.++ (re.+ (re.union (str.to.re "o") (str.to.re "pp"))) (re.++ (re.+ (re.union (str.to.re "qq") (str.to.re "rrr"))) (re.++ (re.+ (re.union (str.to.re "s") (str.to.re "t"))) (re.++ (re.* (re.* (str.to.re "uu"))) (re.++ (re.+ (re.+ (str.to.re "vvv"))) (re.++ (re.* (re.+ (str.to.re "www"))) (re.++ (re.union (re.+ (str.to.re "xxx")) (re.+ (str.to.re "yy"))) (re.++ (re.union (re.* (str.to.re "zz")) (re.* (str.to.re "A"))) (re.++ (re.+ (re.* (str.to.re "BBB"))) (re.++ (re.+ (re.* (str.to.re "C"))) (re.++ (re.* (re.+ (str.to.re "DDD"))) (re.++ (re.* (re.+ (str.to.re "EEE"))) (re.++ (re.+ (re.* (str.to.re "F"))) (re.++ (re.* (re.union (str.to.re "GGG") (str.to.re "HH"))) (re.++ (re.union (re.union (str.to.re "I") (str.to.re "J")) (re.union (str.to.re "KKK") (str.to.re "LL"))) (re.++ (re.* (re.* (str.to.re "M"))) (re.++ (re.* (re.* (str.to.re "N"))) (re.++ (re.union (re.* (str.to.re "OOO")) (re.* (str.to.re "PP"))) (re.++ (re.* (re.* (str.to.re "QQQ"))) (re.++ (re.+ (re.+ (str.to.re "RR"))) (re.++ (re.+ (re.+ (str.to.re "SSS"))) (re.++ (re.* (re.+ (str.to.re "T"))) (re.++ (re.+ (re.union (str.to.re "UUU") (str.to.re "VVV"))) (re.++ (re.union (re.+ (str.to.re "WW")) (re.+ (str.to.re "XXX"))) (re.++ (re.union (re.+ (str.to.re "YY")) (re.+ (str.to.re "ZZZ"))) (re.++ (re.+ (re.+ (str.to.re "!!"))) (re.++ (re.* (re.* (str.to.re """"""))) (re.++ (re.+ (re.* (str.to.re "###"))) (re.++ (re.union (re.union (str.to.re "$") (str.to.re "%%")) (re.union (str.to.re "&") (str.to.re "''"))) (re.++ (re.* (re.union (str.to.re "(((") (str.to.re "))"))) (re.++ (re.* (re.* (str.to.re "**"))) (re.++ (re.* (re.+ (str.to.re "+"))) (re.++ (re.+ (re.union (str.to.re ",,") (str.to.re "-"))) (re.++ (re.union (re.* (str.to.re "...")) (re.* (str.to.re "//"))) (re.++ (re.+ (re.* (str.to.re "::"))) (re.++ (re.+ (re.+ (str.to.re ";"))) (re.++ (re.* (re.* (str.to.re "<<<"))) (re.++ (re.union (re.union (str.to.re "===") (str.to.re ">>")) (re.union (str.to.re "??") (str.to.re "@@@"))) (re.++ (re.+ (re.* (str.to.re "[["))) (re.+ (re.* (str.to.re "\\")))))))))))))))))))))))))))))))))))))))))))))))))))))))))))))
(check-sat)